
  17    4
  10   10   10   10

   0   0   0   0   0   4 2 3 4 5 
   5  10  10  10  10   4 12 10 7 6 
   9  10  10  10  10   5 16 15 12 9 8 
   6  10  10  10  10   3 16 12 6 
   1  10  10  10  10   2 12 6 
   1  10  10  10  10   3 15 14 9 
   4  10  10  10  10   3 16 14 9 
   8  10  10  10  10   2 14 11 
   8  10  10  10  10   1 11 
  10  10  10  10  10   1 11 
   3  10  10  10  10   1 13 
   6  10  10  10  10   1 14 
   3  10  10  10  10   1 17
   8  10  10  10  10   1 17
   2  10  10  10  10   1 17
   5  10  10  10  10   1 17
   0   0   0   0   0   0 
